Nodes = {"0", "1", "2", "3", "4", "5"};
Arcs = {<"0","3",12,0>, <"3","0",12,0>, <"0","4",12,0>, <"4","0",12,0>, <"0","2",12,0>, <"2","0",12,0>, <"0","1",12,205>, <"1","0",12,205>, <"0","5",12,182>, <"5","0",12,182>, <"1","5",12,0>, <"5","1",12,0>, <"1","3",12,0>, <"3","1",12,0>, <"1","2",12,0>, <"2","1",12,0>, <"1","4",12,0>, <"4","1",12,0>, <"2","5",12,0>, <"5","2",12,0>, <"2","3",12,0>, <"3","2",12,0>, <"2","4",12,0>, <"4","2",12,0>, <"3","5",12,0>, <"5","3",12,0>, <"3","4",12,0>, <"4","3",12,0>, <"4","5",12,512>, <"5","4",12,512>};
Demands = {<"0","1",2,1>, <"0","2",4,0>, <"0","3",6,0>, <"0","4",8,0>, <"0","5",10,0>, <"1","0",2,0>, <"1","2",2,0>, <"1","3",4,0>, <"1","4",6,0>, <"1","5",8,0>, <"2","0",4,0>, <"2","1",2,0>, <"2","3",2,0>, <"2","4",4,0>, <"2","5",6,1>, <"3","0",6,0>, <"3","1",4,0>, <"3","2",2,0>, <"3","4",2,0>, <"3","5",4,0>, <"4","0",8,1>, <"4","1",6,0>, <"4","2",4,0>, <"4","3",2,1>, <"4","5",2,0>, <"5","0",10,0>, <"5","1",8,0>, <"5","2",6,0>, <"5","3",4,0>, <"5","4",2,0>, <"2","5",6,1>, <"4","3",2,1>, <"4","0",8,1>, <"0","1",2,1>};
